Gurobi Optimizer version 12.0.0 build v12.0.0rc1 (win64 - Windows 11+.0 (26200.2))

CPU model: 12th Gen Intel(R) Core(TM) i7-12650H, instruction set [SSE2|AVX|AVX2]
Thread count: 10 physical cores, 16 logical processors, using up to 16 threads

Non-default parameters:
TimeLimit  300

Optimize a model with 739 rows, 308 columns and 2094 nonzeros
Model fingerprint: 0xc6f09b8b
Variable types: 0 continuous, 308 integer (308 binary)
Coefficient statistics:
  Matrix range     [1e+00, 2e+03]
  Objective range  [1e+00, 2e+01]
  Bounds range     [1e+00, 1e+00]
  RHS range        [1e+00, 2e+03]
Presolve time: 0.01s
Presolved: 739 rows, 308 columns, 2094 nonzeros
Variable types: 0 continuous, 308 integer (308 binary)
Found heuristic solution: objective 81.8000000

Root relaxation: objective 4.892318e+00, 529 iterations, 0.01 seconds (0.01 work units)

    Nodes    |    Current Node    |     Objective Bounds      |     Work
 Expl Unexpl |  Obj  Depth IntInf | Incumbent    BestBd   Gap | It/Node Time

     0     0    4.89232    0  123   81.80000    4.89232  94.0%     -    0s
H    0     0                      71.2000000    4.89232  93.1%     -    0s
H    0     0                      51.2000000    4.89232  90.4%     -    0s
H    0     0                      48.8000000    4.89232  90.0%     -    0s
H    0     0                      41.2000000    4.89232  88.1%     -    0s
H    0     0                      36.8000000    4.89232  86.7%     -    0s
     0     0    7.19288    0  168   36.80000    7.19288  80.5%     -    0s
     0     0    7.19566    0  168   36.80000    7.19566  80.4%     -    0s
H    0     0                      23.6000000   20.78718  11.9%     -    0s
     0     0   20.78718    0   41   23.60000   20.78718  11.9%     -    0s
     0     0   20.78718    0   41   23.60000   20.78718  11.9%     -    0s
     0     0   20.94273    0   59   23.60000   20.94273  11.3%     -    0s
H    0     0                      22.5000000   20.94273  6.92%     -    0s
     0     0   20.98187    0   68   22.50000   20.98187  6.75%     -    0s
     0     0   21.06000    0   51   22.50000   21.06000  6.40%     -    0s
     0     0   21.06000    0   49   22.50000   21.06000  6.40%     -    0s
     0     0   21.06790    0   68   22.50000   21.06790  6.36%     -    0s
     0     0   21.13784    0   70   22.50000   21.13784  6.05%     -    0s
     0     0   21.13784    0  131   22.50000   21.13784  6.05%     -    0s
     0     0   21.13784    0  103   22.50000   21.13784  6.05%     -    0s
     0     0   21.13784    0   51   22.50000   21.13784  6.05%     -    0s
     0     0   21.13784    0   63   22.50000   21.13784  6.05%     -    0s
     0     0   21.13784    0   62   22.50000   21.13784  6.05%     -    0s
H    0     0                      22.3000000   21.14584  5.18%     -    0s
     0     0   21.14584    0   57   22.30000   21.14584  5.18%     -    0s
     0     0   21.16185    0   73   22.30000   21.16185  5.10%     -    0s
     0     0   21.16272    0   70   22.30000   21.16272  5.10%     -    0s
H    0     0                      21.6000000   21.16272  2.02%     -    0s
H    0     0                      21.5000000   21.16272  1.57%     -    0s
     0     0   21.25748    0   64   21.50000   21.25748  1.13%     -    0s
     0     0   21.25748    0   41   21.50000   21.25748  1.13%     -    0s
     0     0   21.25748    0   88   21.50000   21.25748  1.13%     -    0s
     0     0   21.25748    0   51   21.50000   21.25748  1.13%     -    0s
     0     0   21.25748    0   52   21.50000   21.25748  1.13%     -    0s
     0     0   21.25748    0   50   21.50000   21.25748  1.13%     -    0s
     0     0   21.25748    0   50   21.50000   21.25748  1.13%     -    0s
     0     0   21.25748    0   37   21.50000   21.25748  1.13%     -    0s
     0     0   21.25748    0   32   21.50000   21.25748  1.13%     -    0s
     0     0   21.25748    0   48   21.50000   21.25748  1.13%     -    0s
     0     0   21.50000    0   41   21.50000   21.50000  0.00%     -    0s

Cutting planes:
  Gomory: 2
  Cover: 14
  Implied bound: 3
  MIR: 8
  StrongCG: 1
  GUB cover: 1
  Zero half: 3
  RLT: 17
  Relax-and-lift: 1
  BQP: 7

Explored 1 nodes (4228 simplex iterations) in 0.35 seconds (0.19 work units)
Thread count was 16 (of 16 available processors)

Solution count 10: 21.5 21.6 22.3 ... 71.2

Optimal solution found (tolerance 1.00e-04)
Best objective 2.150000000000e+01, best bound 2.150000000000e+01, gap 0.0000%

========== 最优解 ==========
目标值: 21.5000
模式1: [1,2,0,2] 使用 14 次
模式2: [0,0,5,0] 使用 4 次
模式3: [2,0,1,2] 使用 1 次
模式4: [0,1,3,1] 使用 0 次